<number of tasks>
50

<cycle time>
1000

<order strength>
0.897


<task times>
1 471
2 151
3 566
4 257
5 59
6 80
7 153
8 181
9 142
10 197
11 375
12 114
13 194
14 218
15 503
16 300
17 28
18 59
19 120
20 213
21 155
22 155
23 131
24 198
25 243
26 190
27 189
28 159
29 31
30 139
31 95
32 501
33 282
34 231
35 274
36 89
37 389
38 173
39 267
40 111
41 155
42 150
43 178
44 240
45 203
46 139
47 243
48 260
49 234
50 118

<precedence relations>
1,3
1,4
1,5
2,3
2,4
2,5
3,6
3,7
3,8
4,6
4,7
4,8
5,6
5,7
5,8
6,9
6,10
6,11
7,9
7,10
7,11
8,9
8,10
8,11
9,12
9,13
9,14
10,12
10,13
10,14
11,13
11,14
12,15
13,15
14,17
15,16
15,17
15,18
16,19
17,20
17,21
18,19
18,20
18,21
19,22
19,23
20,22
20,23
21,22
21,23
22,24
22,25
22,26
23,24
23,25
23,26
24,27
24,28
24,29
25,27
26,27
26,28
26,29
27,30
27,33
28,31
28,32
28,33
29,30
29,31
29,32
30,34
30,35
31,35
31,36
32,34
32,37
32,39
33,34
34,38
35,37
35,39
36,37
37,40
37,41
38,40
39,42
40,44
41,49
42,43
42,45
44,45
44,46
46,47
46,48
46,49
46,50

<end>
